# Objective value = 4347.06
I_0_0 1301
I_0_1 1699
I_0_2 1451
I_0_3 1999
I_1_0 26
I_1_1 -5.7731597280508140e-15
I_1_2 2.6000000000000007e+01
I_1_3 -5.7731597280508140e-15
I_2_0 19
I_2_1 2.3203661214665772e-14
I_2_2 19
I_2_3 0
I_3_0 91
I_3_1 0
I_3_2 91
I_3_3 0
I_4_0 198
I_4_1 198
I_4_2 99
I_4_3 0
I_5_0 43
I_5_1 2.6256774532384952e-14
I_5_2 4.3000000000000007e+01
I_5_3 -9.5479180117763462e-15
I_6_0 102
I_6_1 102
I_6_2 5.1000000000000014e+01
I_6_3 1.1546319456101628e-14
I_7_0 69
I_7_1 0
I_7_2 69
I_7_3 0
I_8_0 44
I_8_1 2.6867397195928788e-14
I_8_2 44
I_8_3 0
I_9_0 110
I_9_1 55
I_9_2 110
I_9_3 55
I_10_0 51
I_10_1 0
I_10_2 51
I_10_3 0
q_1_0 -5.7731597280508140e-15
q_1_1 5.2000000000000014e+01
q_1_2 -1.2878587085651816e-14
q_2_0 2.3203661214665772e-14
q_2_1 3.7999999999999972e+01
q_2_2 0
q_3_0 0
q_3_1 182
q_3_2 0
q_4_0 99
q_4_1 0
q_4_2 0
q_5_0 2.6256774532384952e-14
q_5_1 8.5999999999999972e+01
q_5_2 -1.6653345369377348e-14
q_6_0 51
q_6_1 1.6875389974302379e-14
q_6_2 0
q_7_0 0
q_7_1 138
q_7_2 0
q_8_0 2.6867397195928788e-14
q_8_1 8.7999999999999972e+01
q_8_2 0
q_9_0 0
q_9_1 110
q_9_2 0
q_10_0 0
q_10_1 102
q_10_2 0
y_0_0 1
y_0_1 1
y_0_2 5.5511151231257827e-17
y_1_0 -2.2204460492503131e-16
y_1_1 1.0000000000000002e+00
y_1_2 -2.2204460492503131e-16
y_2_0 1.2212453270876722e-15
y_2_1 1
y_2_2 0
y_3_0 0
y_3_1 1
y_3_2 0
y_4_0 1
y_4_1 1.2490009027033011e-16
y_4_2 0
y_5_0 6.1062266354383610e-16
y_5_1 1.0000000000000002e+00
y_5_2 -2.2204460492503131e-16
y_6_0 1
y_6_1 1.8041124150158794e-16
y_6_2 0
y_7_0 0
y_7_1 1
y_7_2 0
y_8_0 6.1062266354383610e-16
y_8_1 1
y_8_2 0
y_9_0 0
y_9_1 1
y_9_2 0
y_10_0 0
y_10_1 1
y_10_2 0
x_0_1_0 0
x_0_1_1 0
x_0_1_2 0
x_0_2_0 0
x_0_2_1 9.9999999999999989e-01
x_0_2_2 0
x_0_3_0 0
x_0_3_1 0
x_0_3_2 0
x_0_4_0 1.0000000000000009e+00
x_0_4_1 2.4980018054066022e-16
x_0_4_2 0
x_0_5_0 0
x_0_5_1 0
x_0_5_2 0
x_0_6_0 9.9999999999999922e-01
x_0_6_1 0
x_0_6_2 0
x_0_7_0 0
x_0_7_1 9.9999999999999978e-01
x_0_7_2 4.4408920985006262e-16
x_0_8_0 0
x_0_8_1 0
x_0_8_2 0
x_0_9_0 0
x_0_9_1 0
x_0_9_2 0
x_0_10_0 0
x_0_10_1 0
x_0_10_2 0
x_1_2_0 0
x_1_2_1 0
x_1_2_2 0
x_1_3_0 0
x_1_3_1 1.0000000000000002e+00
x_1_3_2 0
x_1_4_0 0
x_1_4_1 0
x_1_4_2 0
x_1_5_0 -2.2204460492503131e-16
x_1_5_1 1.0000000000000002e+00
x_1_5_2 -2.2204460492503131e-16
x_1_6_0 -2.2204460492503131e-16
x_1_6_1 0
x_1_6_2 0
x_1_7_0 0
x_1_7_1 1.1102230246251565e-16
x_1_7_2 -2.2204460492503131e-16
x_1_8_0 0
x_1_8_1 0
x_1_8_2 0
x_1_9_0 0
x_1_9_1 0
x_1_9_2 0
x_1_10_0 0
x_1_10_1 0
x_1_10_2 0
x_2_3_0 0
x_2_3_1 0
x_2_3_2 0
x_2_4_0 0
x_2_4_1 0
x_2_4_2 0
x_2_5_0 0
x_2_5_1 0
x_2_5_2 0
x_2_6_0 1.2212453270876722e-15
x_2_6_1 1.6653345369377348e-16
x_2_6_2 0
x_2_7_0 0
x_2_7_1 -2.7755575615628914e-17
x_2_7_2 0
x_2_8_0 1.2212453270876722e-15
x_2_8_1 4.2327252813834093e-16
x_2_8_2 0
x_2_9_0 0
x_2_9_1 0
x_2_9_2 0
x_2_10_0 0
x_2_10_1 9.9999999999999956e-01
x_2_10_2 0
x_3_4_0 0
x_3_4_1 0
x_3_4_2 0
x_3_5_0 0
x_3_5_1 2.2204460492503131e-16
x_3_5_2 0
x_3_6_0 0
x_3_6_1 0
x_3_6_2 0
x_3_7_0 0
x_3_7_1 9.9999999999999956e-01
x_3_7_2 0
x_3_8_0 0
x_3_8_1 0
x_3_8_2 0
x_3_9_0 0
x_3_9_1 0
x_3_9_2 0
x_3_10_0 0
x_3_10_1 0
x_3_10_2 0
x_4_5_0 0
x_4_5_1 0
x_4_5_2 0
x_4_6_0 9.9999999999999922e-01
x_4_6_1 0
x_4_6_2 0
x_4_7_0 0
x_4_7_1 0
x_4_7_2 0
x_4_8_0 0
x_4_8_1 0
x_4_8_2 0
x_4_9_0 0
x_4_9_1 0
x_4_9_2 0
x_4_10_0 0
x_4_10_1 0
x_4_10_2 0
x_5_6_0 1.5543122344752192e-15
x_5_6_1 0
x_5_6_2 0
x_5_7_0 0
x_5_7_1 0
x_5_7_2 -2.2204460492503131e-16
x_5_8_0 0
x_5_8_1 1.1102230246251565e-16
x_5_8_2 0
x_5_9_0 0
x_5_9_1 1
x_5_9_2 0
x_5_10_0 0
x_5_10_1 0
x_5_10_2 0
x_6_7_0 0
x_6_7_1 0
x_6_7_2 0
x_6_8_0 0
x_6_8_1 -1.9428902930940239e-16
x_6_8_2 0
x_6_9_0 0
x_6_9_1 0
x_6_9_2 0
x_6_10_0 0
x_6_10_1 3.8857805861880479e-16
x_6_10_2 0
x_7_8_0 0
x_7_8_1 0
x_7_8_2 0
x_7_9_0 0
x_7_9_1 0
x_7_9_2 0
x_7_10_0 0
x_7_10_1 0
x_7_10_2 0
x_8_9_0 0
x_8_9_1 9.9999999999999978e-01
x_8_9_2 0
x_8_10_0 0
x_8_10_1 9.9999999999999989e-01
x_8_10_2 0
x_9_10_0 0
x_9_10_1 4.1633363423443370e-17
x_9_10_2 0
